# LAMMPS input file

variable k equal kkk
variable T equal ttt
variable P equal ppp

log t${T}p${P}k${k}f5n8000npt.log
units 		lj
dimension 	3

#atom_style	bond
# if there are angular potentials, use next line
atom_style	angle
angle_style	cosine

read_data t${T}p${P}f5n8000npt.lmp

group polymer type 1
group rod type 2

pair_style	lj/cut	2.5
#when using global * * the cutoff should be the smallest of all possible pairs
pair_coeff	* *	1.0 1.0 2.5  #final 2.5 is redundant here; can override global
pair_modify	shift	yes

bond_style	fene
bond_coeff	1	30 1.5		1.0 1.0
special_bonds fene

angle_coeff 	1 ${k}

fix	1	all npt	temp ${T} ${T} 1.0   iso ${P} ${P} 5.0
#starting temperature/ending Temperature/Tdamp
fix cmvel all momentum 1000 linear 1 1 1

compute 1 polymer pair/local eng
compute 2 rod pair/local eng
# figure out how to output these computes!
#

thermo_style custom step ke pe etotal epair ebond eangle press temp lx vol
thermo 1000

dump 1 all xyz	10000	dump-k${k}.xyz

restart 1000 t${T}p${P}f5n8000npt-1.res t${T}p${P}f5n8000npt-2.res

#run_style respa 2 3 bond 1 pair 2
#timestep 0.006

timestep 0.002

run 100000
