# LAMMPS input file

variable k world 100
variable T world 1.1
variable p world 0.0
variable n world 8000
variable f world 5
variable eps world 1.0 # todo: generalize this
variable T_high world 1.1
variable filename string k${k}t${T}p${p}f${f}n${n}npt
variable config string k${k}t${T_high}p${p}f${f}n${n}npt

log ${filename}.log
units 		lj
dimension 	3

# atom_style	bond
# if there are angular potentials, use next line
atom_style	angle
angle_style	cosine
#read_data ${filename}.lmp # use this if first time running
read_restart ${config}-1.res
#reset_timestep 0 # may wanna comment this out

# define a group so we can reference the group id in the custom compute commands.
group polymer type 1
group stiff type 2

# compute rod-rod energy; the reduce yields (rod-rod energy) / Ntotal
# where Ntotal = N = Npoly + Nrod
compute 1 stiff pair/local eng
compute erodrod stiff reduce sum c_1 # todo: see if i can renorm by N/Nrod, etc.
# compute poly-poly energy; the reduce yields (poly-poly energy) / Ntotal
compute 2 polymer pair/local eng
compute epolymer polymer reduce sum c_2
compute 3 all pair/local eng
compute pairtotal all reduce sum c_3

pair_style	lj/cut	2.5
#when using global * * the cutoff should be the smallest of all possible pairs
pair_coeff 1 1 1.0 1.0 2.5
pair_coeff 2 2 1.0 1.0 2.5
pair_coeff 1 2 ${eps} 1.0 2.5 #final 2.5 is redundant here; can override global
pair_modify	shift	yes

bond_style	fene
bond_coeff	1	30 1.5		1.0 1.0
special_bonds fene

angle_coeff 	1 ${k}

fix	1	all npt	temp ${T} ${T}  1.0   iso ${p} ${p} 5.0
#starting temperature/ending Temperature/Tdamp
fix cmvel all momentum 1000 linear 1 1 1

# todo: find a way to store energy between two different types of poly chains
thermo_style custom step ke pe etotal epair c_epolymer c_erodrod ebond eangle press temp lx vol
thermo 1000

dump 1 all xyz	100000	dump${filename}.xyz
dump 2 all local 100000 rre.txt index c_1
dump 3 all local 100000 ppe.txt index c_2
dump 4 all local 100000 tot_e.txt index c_3

restart 1000 ${filename}-1.res ${filename}-2.res

#run_style respa 2 3 bond 1 pair 2
#timestep 0.006

timestep 0.002

run 10000000 upto
